56195
32 49 1801
49 26 560
26 55 397
55 28 487
28 3 609
3 6 385
6 30 2383
30 4 380
4 18 606
18 12 768
12 14 816
14 2 433
2 52 598
52 45 722
45 11 436
11 42 1343
42 33 4807
33 1 7621
1 27 4123
27 31 4460
31 25 299
25 15 1148
15 36 679
36 46 402
46 39 214
39 16 451
16 9 1036
9 47 1162
47 54 491
54 34 401
34 53 396
53 10 819
10 22 117
22 29 544
29 21 516
21 23 176
23 17 619
17 48 415
48 19 897
19 44 1282
44 8 383
8 38 368
38 5 1283
5 35 323
35 24 296
24 50 868
50 20 763
20 7 846
7 37 517
37 51 590
51 40 1042
40 43 1279
43 13 790
13 41 686
41 32 362
